c This is a random SAT instance with 10 variables and 20 clauses
p cnf 10 20
9 7 -9 3 -4 0
9 4 -5 -2 0
2 5 1 -5 8 4 -7 9 -10 0
-7 -2 -9 -10 2 7 -1 -5 4 5 0
10 5 -5 1 0
3 -8 10 0
2 -4 -1 0
-7 5 0
7 0
6 2 -4 7 9 -8 -7 8 5 -3 0
8 1 7 -2 -10 3 0
9 -6 -4 3 10 -9 5 1 0
2 -5 -6 -8 6 5 3 -4 -2 0
10 3 -10 -5 9 0
8 -9 0
-5 0
-6 2 -1 -8 0
-4 0
7 -4 -5 4 -3 10 -1 -10 -9 0
1 0